9
10000 374 200 223 108 178 252 285 240 
374 10000 255 166 433 199 135 095 136 
200 255 10000 128 277 128 180 160 131 
223 166 128 10000 430 047 052 084 040 
108 433 277 430 10000 453 478 344 389 
178 199 128 047 453 10000 091 110 064 
252 135 180 052 478 091 10000 114 083 
285 095 160 084 344 110 114 10000 047 
240 136 131 040 389 064 083 047 10000